c nIsolatedPIs 0
c maxPI 32
p cnf 192 481
c gate 33 -13 29 0
-13 -33 0
29 -33 0
13 -29 33 0
c gate 34 12 -28 0
12 -34 0
-28 -34 0
-12 28 34 0
c gate 35 11 -27 0
11 -35 0
-27 -35 0
-11 27 35 0
c gate 36 -10 26 0
-10 -36 0
26 -36 0
10 -26 36 0
c gate 37 10 -26 0
10 -37 0
-26 -37 0
-10 26 37 0
c gate 38 -9 25 0
-9 -38 0
25 -38 0
9 -25 38 0
c gate 39 -2 18 0
-2 -39 0
18 -39 0
2 -18 39 0
c gate 40 -1 17 0
-1 -40 0
17 -40 0
1 -17 40 0
c gate 41 -39 -40 0
-39 -41 0
-40 -41 0
39 40 41 0
c gate 42 3 -19 0
3 -42 0
-19 -42 0
-3 19 42 0
c gate 43 2 -18 0
2 -43 0
-18 -43 0
-2 18 43 0
c gate 44 -42 -43 0
-42 -44 0
-43 -44 0
42 43 44 0
c gate 45 -41 44 0
-41 -45 0
44 -45 0
41 -44 45 0
c gate 46 -4 20 0
-4 -46 0
20 -46 0
4 -20 46 0
c gate 47 -3 19 0
-3 -47 0
19 -47 0
3 -19 47 0
c gate 48 -46 -47 0
-46 -48 0
-47 -48 0
46 47 48 0
c gate 49 -45 48 0
-45 -49 0
48 -49 0
45 -48 49 0
c gate 50 4 -20 0
4 -50 0
-20 -50 0
-4 20 50 0
c gate 51 5 -21 0
5 -51 0
-21 -51 0
-5 21 51 0
c gate 52 -50 -51 0
-50 -52 0
-51 -52 0
50 51 52 0
c gate 53 -49 52 0
-49 -53 0
52 -53 0
49 -52 53 0
c gate 54 -6 22 0
-6 -54 0
22 -54 0
6 -22 54 0
c gate 55 -5 21 0
-5 -55 0
21 -55 0
5 -21 55 0
c gate 56 -54 -55 0
-54 -56 0
-55 -56 0
54 55 56 0
c gate 57 -53 56 0
-53 -57 0
56 -57 0
53 -56 57 0
c gate 58 7 -23 0
7 -58 0
-23 -58 0
-7 23 58 0
c gate 59 6 -22 0
6 -59 0
-22 -59 0
-6 22 59 0
c gate 60 -58 -59 0
-58 -60 0
-59 -60 0
58 59 60 0
c gate 61 -57 60 0
-57 -61 0
60 -61 0
57 -60 61 0
c gate 62 -7 23 0
-7 -62 0
23 -62 0
7 -23 62 0
c gate 63 -8 24 0
-8 -63 0
24 -63 0
8 -24 63 0
c gate 64 -62 -63 0
-62 -64 0
-63 -64 0
62 63 64 0
c gate 65 -61 64 0
-61 -65 0
64 -65 0
61 -64 65 0
c gate 66 8 -24 0
8 -66 0
-24 -66 0
-8 24 66 0
c gate 67 9 -25 0
9 -67 0
-25 -67 0
-9 25 67 0
c gate 68 -66 -67 0
-66 -68 0
-67 -68 0
66 67 68 0
c gate 69 -65 68 0
-65 -69 0
68 -69 0
65 -68 69 0
c gate 70 -38 -69 0
-38 -70 0
-69 -70 0
38 69 70 0
c gate 71 -37 -70 0
-37 -71 0
-70 -71 0
37 70 71 0
c gate 72 -36 -71 0
-36 -72 0
-71 -72 0
36 71 72 0
c gate 73 -35 -72 0
-35 -73 0
-72 -73 0
35 72 73 0
c gate 74 -12 28 0
-12 -74 0
28 -74 0
12 -28 74 0
c gate 75 -11 27 0
-11 -75 0
27 -75 0
11 -27 75 0
c gate 76 -74 -75 0
-74 -76 0
-75 -76 0
74 75 76 0
c gate 77 -73 76 0
-73 -77 0
76 -77 0
73 -76 77 0
c gate 78 -34 -77 0
-34 -78 0
-77 -78 0
34 77 78 0
c gate 79 33 -78 0
33 -79 0
-78 -79 0
-33 78 79 0
c gate 80 15 -31 0
15 -80 0
-31 -80 0
-15 31 80 0
c gate 81 14 -30 0
14 -81 0
-30 -81 0
-14 30 81 0
c gate 82 -14 30 0
-14 -82 0
30 -82 0
14 -30 82 0
c gate 83 -81 -82 0
-81 -83 0
-82 -83 0
81 82 83 0
c gate 84 33 83 0
33 -84 0
83 -84 0
-33 -83 84 0
c gate 85 13 -29 0
13 -85 0
-29 -85 0
-13 29 85 0
c gate 86 -81 -85 0
-81 -86 0
-85 -86 0
81 85 86 0
c gate 87 78 86 0
78 -87 0
86 -87 0
-78 -86 87 0
c gate 88 -15 31 0
-15 -88 0
31 -88 0
15 -31 88 0
c gate 89 -82 -88 0
-82 -89 0
-88 -89 0
82 88 89 0
c gate 90 -87 89 0
-87 -90 0
89 -90 0
87 -89 90 0
c gate 91 -84 90 0
-84 -91 0
90 -91 0
84 -90 91 0
c gate 92 -80 -91 0
-80 -92 0
-91 -92 0
80 91 92 0
c gate 93 -16 -32 0
-16 -93 0
-32 -93 0
16 32 93 0
c gate 94 16 32 0
16 -94 0
32 -94 0
-16 -32 94 0
c gate 95 -93 -94 0
-93 -95 0
-94 -95 0
93 94 95 0
c gate 96 92 -95 0
92 -96 0
-95 -96 0
-92 95 96 0
c gate 97 -92 95 0
-92 -97 0
95 -97 0
92 -95 97 0
c gate 98 -96 -97 0
-96 -98 0
-97 -98 0
96 97 98 0
c gate 99 -90 -95 0
-90 -99 0
-95 -99 0
90 95 99 0
c gate 100 90 95 0
90 -100 0
95 -100 0
-90 -95 100 0
c gate 101 -99 -100 0
-99 -101 0
-100 -101 0
99 100 101 0
c gate 102 98 -101 0
98 -102 0
-101 -102 0
-98 101 102 0
c gate 103 -98 101 0
-98 -103 0
101 -103 0
98 -101 103 0
c gate 104 -80 -88 0
-80 -104 0
-88 -104 0
80 88 104 0
c gate 105 79 83 0
79 -105 0
83 -105 0
-79 -83 105 0
c gate 106 -104 105 0
-104 -106 0
105 -106 0
104 -105 106 0
c gate 107 -7 -23 0
-7 -107 0
-23 -107 0
7 23 107 0
c gate 108 7 23 0
7 -108 0
23 -108 0
-7 -23 108 0
c gate 109 -6 -22 0
-6 -109 0
-22 -109 0
6 22 109 0
c gate 110 5 21 0
5 -110 0
21 -110 0
-5 -21 110 0
c gate 111 6 22 0
6 -111 0
22 -111 0
-6 -22 111 0
c gate 112 -110 -111 0
-110 -112 0
-111 -112 0
110 111 112 0
c gate 113 -2 -18 0
-2 -113 0
-18 -113 0
2 18 113 0
c gate 114 4 20 0
4 -114 0
20 -114 0
-4 -20 114 0
c gate 115 3 19 0
3 -115 0
19 -115 0
-3 -19 115 0
c gate 116 -114 -115 0
-114 -116 0
-115 -116 0
114 115 116 0
c gate 117 113 116 0
113 -117 0
116 -117 0
-113 -116 117 0
c gate 118 1 17 0
1 -118 0
17 -118 0
-1 -17 118 0
c gate 119 2 18 0
2 -119 0
18 -119 0
-2 -18 119 0
c gate 120 -118 -119 0
-118 -120 0
-119 -120 0
118 119 120 0
c gate 121 -3 -19 0
-3 -121 0
-19 -121 0
3 19 121 0
c gate 122 -120 -121 0
-120 -122 0
-121 -122 0
120 121 122 0
c gate 123 116 -122 0
116 -123 0
-122 -123 0
-116 122 123 0
c gate 124 -4 -20 0
-4 -124 0
-20 -124 0
4 20 124 0
c gate 125 -5 -21 0
-5 -125 0
-21 -125 0
5 21 125 0
c gate 126 -124 -125 0
-124 -126 0
-125 -126 0
124 125 126 0
c gate 127 -123 126 0
-123 -127 0
126 -127 0
123 -126 127 0
c gate 128 -117 127 0
-117 -128 0
127 -128 0
117 -127 128 0
c gate 129 112 -128 0
112 -129 0
-128 -129 0
-112 128 129 0
c gate 130 -109 -129 0
-109 -130 0
-129 -130 0
109 129 130 0
c gate 131 -108 -130 0
-108 -131 0
-130 -131 0
108 130 131 0
c gate 132 -107 -131 0
-107 -132 0
-131 -132 0
107 131 132 0
c gate 133 8 24 0
8 -133 0
24 -133 0
-8 -24 133 0
c gate 134 -8 -24 0
-8 -134 0
-24 -134 0
8 24 134 0
c gate 135 -133 -134 0
-133 -135 0
-134 -135 0
133 134 135 0
c gate 136 132 135 0
132 -136 0
135 -136 0
-132 -135 136 0
c gate 137 9 25 0
9 -137 0
25 -137 0
-9 -25 137 0
c gate 138 -133 -137 0
-133 -138 0
-137 -138 0
133 137 138 0
c gate 139 -136 138 0
-136 -139 0
138 -139 0
136 -138 139 0
c gate 140 -10 -26 0
-10 -140 0
-26 -140 0
10 26 140 0
c gate 141 -9 -25 0
-9 -141 0
-25 -141 0
9 25 141 0
c gate 142 -140 -141 0
-140 -142 0
-141 -142 0
140 141 142 0
c gate 143 -139 142 0
-139 -143 0
142 -143 0
139 -142 143 0
c gate 144 11 27 0
11 -144 0
27 -144 0
-11 -27 144 0
c gate 145 10 26 0
10 -145 0
26 -145 0
-10 -26 145 0
c gate 146 -144 -145 0
-144 -146 0
-145 -146 0
144 145 146 0
c gate 147 -143 146 0
-143 -147 0
146 -147 0
143 -146 147 0
c gate 148 -11 -27 0
-11 -148 0
-27 -148 0
11 27 148 0
c gate 149 -12 -28 0
-12 -149 0
-28 -149 0
12 28 149 0
c gate 150 -148 -149 0
-148 -150 0
-149 -150 0
148 149 150 0
c gate 151 -147 150 0
-147 -151 0
150 -151 0
147 -150 151 0
c gate 152 112 -127 0
112 -152 0
-127 -152 0
-112 127 152 0
c gate 153 -107 -109 0
-107 -153 0
-109 -153 0
107 109 153 0
c gate 154 -152 153 0
-152 -154 0
153 -154 0
152 -153 154 0
c gate 155 -108 -154 0
-108 -155 0
-154 -155 0
108 154 155 0
c gate 156 135 155 0
135 -156 0
155 -156 0
-135 -155 156 0
c gate 157 -134 -141 0
-134 -157 0
-141 -157 0
134 141 157 0
c gate 158 -156 157 0
-156 -158 0
157 -158 0
156 -157 158 0
c gate 159 -137 -145 0
-137 -159 0
-145 -159 0
137 145 159 0
c gate 160 -158 159 0
-158 -160 0
159 -160 0
158 -159 160 0
c gate 161 -140 -148 0
-140 -161 0
-148 -161 0
140 148 161 0
c gate 162 -160 161 0
-160 -162 0
161 -162 0
160 -161 162 0
c gate 163 12 28 0
12 -163 0
28 -163 0
-12 -28 163 0
c gate 164 -144 -163 0
-144 -164 0
-163 -164 0
144 163 164 0
c gate 165 -162 164 0
-162 -165 0
164 -165 0
162 -164 165 0
c gate 166 -83 95 0
-83 -166 0
95 -166 0
83 -95 166 0
c gate 167 -34 -74 0
-34 -167 0
-74 -167 0
34 74 167 0
c gate 168 -33 -85 0
-33 -168 0
-85 -168 0
33 85 168 0
c gate 169 -104 -168 0
-104 -169 0
-168 -169 0
104 168 169 0
c gate 170 -167 169 0
-167 -170 0
169 -170 0
167 -169 170 0
c gate 171 166 170 0
166 -171 0
170 -171 0
-166 -170 171 0
c gate 172 -165 171 0
-165 -172 0
171 -172 0
165 -171 172 0
c gate 173 -151 172 0
-151 -173 0
172 -173 0
151 -172 173 0
c gate 174 135 -155 0
135 -174 0
-155 -174 0
-135 155 174 0
c gate 175 -132 174 0
-132 -175 0
174 -175 0
132 -174 175 0
c gate 176 -173 175 0
-173 -176 0
175 -176 0
173 -175 176 0
c gate 177 118 119 0
118 -177 0
119 -177 0
-118 -119 177 0
c gate 178 -175 -177 0
-175 -178 0
-177 -178 0
175 177 178 0
c gate 179 -176 -178 0
-176 -179 0
-178 -179 0
176 178 179 0
c gate 180 -79 179 0
-79 -180 0
179 -180 0
79 -179 180 0
c gate 181 -105 -180 0
-105 -181 0
-180 -181 0
105 180 181 0
c gate 182 -106 -181 0
-106 -182 0
-181 -182 0
106 181 182 0
c gate 183 -103 -182 0
-103 -183 0
-182 -183 0
103 182 183 0
c gate 184 -102 -183 0
-102 -184 0
-183 -184 0
102 183 184 0
c gate 185 113 118 0
113 -185 0
118 -185 0
-113 -118 185 0
c gate 186 -173 185 0
-173 -186 0
185 -186 0
173 -185 186 0
c gate 187 184 -186 0
184 -187 0
-186 -187 0
-184 186 187 0
c gate 188 -179 -184 0
-179 -188 0
-184 -188 0
179 184 188 0
c gate 189 -187 -188 0
-187 -189 0
-188 -189 0
187 188 189 0
c gate 190 -79 189 0
-79 -190 0
189 -190 0
79 -189 190 0
c gate 191 79 184 0
79 -191 0
184 -191 0
-79 -184 191 0
c gate 192 -190 -191 0
-190 -192 0
-191 -192 0
190 191 192 0
c PO
-192 0
